ID_groupA,ID_groupB
10065,9822
10065,9822
8611,9822
10065,9822
19730,4035
10065,9822
10065,9822
10065,258
10065,9822
10065,258
10065,9822
10065,9822
10065,9822
10065,9822
8611,18604
8611,9822
10065,9822
19730,9822
16138,9822
10065,9822
10065,9822
10065,9822
10065,9822
16138,9822
10065,9822
10065,9822
10065,9822
8611,18604
18298,18604
19730,9822
16138,9822
18298,18604
10065,9822
10065,9822
10065,9822
16138,9822
18298,18604
18298,18604
18298,18604
8611,18604
19730,9822
8611,9822
8611,9822
8611,9822
8611,9822
8611,9822
8611,9822
8611,18604
8611,9822
8611,18604
19730,9822
16138,9822
16138,9822
10065,9822
10065,9822
10065,9822
16138,9822
16138,9822
16138,9822
16138,9822
19730,9822
19730,9822
19730,258
19730,4035
19730,258
19730,9822
19730,9822
19730,9822
19730,9822
16138,9822
16138,258
10065,9822
10065,9822
16138,9822
16138,9822
16138,9822
16138,9822
16138,258
10065,9822
10065,9822
16138,9822
16138,9822
16138,9822
16138,9822
10065,258
10065,258
16138,258
10065,9822
16138,258
10065,9822
10065,9822
16138,9822
10065,9822
10065,9822
10065,9822
16138,258
10065,9822
10065,9822
10065,9822
16138,9822
16138,9822
16138,9822
10065,6396
10065,6396
10065,9822
